c CNF file corresponding to a (partial) station packing problem.
p cnf 764 229
1 2 3 4 5 6 7 8 9 10 11 12 13 14 0
-1 -2 0
-1 -3 0
-1 -4 0
-1 -5 0
-1 -6 0
-1 -7 0
-1 -8 0
-1 -9 0
-1 -10 0
-1 -11 0
-1 -12 0
-1 -13 0
-1 -14 0
-2 -3 0
-2 -4 0
-2 -5 0
-2 -6 0
-2 -7 0
-2 -8 0
-2 -9 0
-2 -10 0
-2 -11 0
-2 -12 0
-2 -13 0
-2 -14 0
-3 -4 0
-3 -5 0
-3 -6 0
-3 -7 0
-3 -8 0
-3 -9 0
-3 -10 0
-3 -11 0
-3 -12 0
-3 -13 0
-3 -14 0
-4 -5 0
-4 -6 0
-4 -7 0
-4 -8 0
-4 -9 0
-4 -10 0
-4 -11 0
-4 -12 0
-4 -13 0
-4 -14 0
-5 -6 0
-5 -7 0
-5 -8 0
-5 -9 0
-5 -10 0
-5 -11 0
-5 -12 0
-5 -13 0
-5 -14 0
-6 -7 0
-6 -8 0
-6 -9 0
-6 -10 0
-6 -11 0
-6 -12 0
-6 -13 0
-6 -14 0
-7 -8 0
-7 -9 0
-7 -10 0
-7 -11 0
-7 -12 0
-7 -13 0
-7 -14 0
-8 -9 0
-8 -10 0
-8 -11 0
-8 -12 0
-8 -13 0
-8 -14 0
-9 -10 0
-9 -11 0
-9 -12 0
-9 -13 0
-9 -14 0
-10 -11 0
-10 -12 0
-10 -13 0
-10 -14 0
-11 -12 0
-11 -13 0
-11 -14 0
-12 -13 0
-12 -14 0
-13 -14 0
748 749 750 751 752 753 754 755 756 757 758 759 760 761 762 763 764 0
-748 -749 0
-748 -750 0
-748 -751 0
-748 -752 0
-748 -753 0
-748 -754 0
-748 -755 0
-748 -756 0
-748 -757 0
-748 -758 0
-748 -759 0
-748 -760 0
-748 -761 0
-748 -762 0
-748 -763 0
-748 -764 0
-749 -750 0
-749 -751 0
-749 -752 0
-749 -753 0
-749 -754 0
-749 -755 0
-749 -756 0
-749 -757 0
-749 -758 0
-749 -759 0
-749 -760 0
-749 -761 0
-749 -762 0
-749 -763 0
-749 -764 0
-750 -751 0
-750 -752 0
-750 -753 0
-750 -754 0
-750 -755 0
-750 -756 0
-750 -757 0
-750 -758 0
-750 -759 0
-750 -760 0
-750 -761 0
-750 -762 0
-750 -763 0
-750 -764 0
-751 -752 0
-751 -753 0
-751 -754 0
-751 -755 0
-751 -756 0
-751 -757 0
-751 -758 0
-751 -759 0
-751 -760 0
-751 -761 0
-751 -762 0
-751 -763 0
-751 -764 0
-752 -753 0
-752 -754 0
-752 -755 0
-752 -756 0
-752 -757 0
-752 -758 0
-752 -759 0
-752 -760 0
-752 -761 0
-752 -762 0
-752 -763 0
-752 -764 0
-753 -754 0
-753 -755 0
-753 -756 0
-753 -757 0
-753 -758 0
-753 -759 0
-753 -760 0
-753 -761 0
-753 -762 0
-753 -763 0
-753 -764 0
-754 -755 0
-754 -756 0
-754 -757 0
-754 -758 0
-754 -759 0
-754 -760 0
-754 -761 0
-754 -762 0
-754 -763 0
-754 -764 0
-755 -756 0
-755 -757 0
-755 -758 0
-755 -759 0
-755 -760 0
-755 -761 0
-755 -762 0
-755 -763 0
-755 -764 0
-756 -757 0
-756 -758 0
-756 -759 0
-756 -760 0
-756 -761 0
-756 -762 0
-756 -763 0
-756 -764 0
-757 -758 0
-757 -759 0
-757 -760 0
-757 -761 0
-757 -762 0
-757 -763 0
-757 -764 0
-758 -759 0
-758 -760 0
-758 -761 0
-758 -762 0
-758 -763 0
-758 -764 0
-759 -760 0
-759 -761 0
-759 -762 0
-759 -763 0
-759 -764 0
-760 -761 0
-760 -762 0
-760 -763 0
-760 -764 0
-761 -762 0
-761 -763 0
-761 -764 0
-762 -763 0
-762 -764 0
-763 -764 0
